(set-logic QF_NIA)
(declare-const a_0 Int)
(declare-const b_0 Int)
(declare-const $L_1_1 Int)
(declare-const $L_2_1 Int)
(declare-const $L_3_1 Int)
(declare-const $L_3_2 Int)
(declare-const $L_4_1 Int)
(declare-const $L_4_2 Int)
(declare-const f_1 Int)
(declare-const f_0 Int)
(declare-const $L_5_1 Int)
(declare-const $L_5_2 Int)
(declare-const $L_6_1 Int)
(declare-const $L_6_2 Int)
(declare-const p_1 Int)
(declare-const p_2 Int)
(declare-const $c Int)
(declare-const s_1 Int)
(declare-const p_0 Int)
(declare-const s_0 Int)
(declare-const $L_7_1 Int)
(declare-const $L_7_2 Int)
(assert (>= $c 0))
(assert (>= (* $c a_0) 0))
(assert (>= (* $c b_0) 0))
(assert (>= (+ a_0 (- b_0)) (+ (- 0) 1)))
(assert (= (* $c f_1) (* $c $L_1_1)))
(assert (>= 0 (* (- $c) f_0)))
(assert (>= $L_1_1 0))
(assert (= (* $c s_1) (* $c $L_2_1)))
(assert (>= 0 (* (- $c) s_0)))
(assert (>= $L_2_1 0))
(assert (= (* $c p_1) (* $c $L_3_1)))
(assert (= (* $c p_2) (* $c $L_3_2)))
(assert (>= 0 (* (- $c) p_0)))
(assert (>= $L_3_1 0))
(assert (>= $L_3_2 0))
(assert (= (* f_1 p_2) (* $c $L_4_1)))
(assert (= (+ (* f_1 p_1) (- 1)) (* $c $L_4_2)))
(assert (>= 0 (+ (* (- f_1) p_0) (- f_0))))
(assert (>= $L_4_1 0))
(assert (>= $L_4_2 0))
(assert (= (* (- f_1) p_2) (* $c $L_5_1)))
(assert (= (+ (* (- f_1) p_1) 1) (* $c $L_5_2)))
(assert (>= 0 (+ (* f_1 p_0) f_0)))
(assert (>= $L_5_1 0))
(assert (>= $L_5_2 0))
(assert (= (* s_1 p_1) (* $c $L_6_1)))
(assert (= (+ (* s_1 p_2) (- 1)) (* $c $L_6_2)))
(assert (>= 0 (+ (* (- s_1) p_0) (- s_0))))
(assert (>= $L_6_1 0))
(assert (>= $L_6_2 0))
(assert (= (* (- s_1) p_1) (* $c $L_7_1)))
(assert (= (+ (* (- s_1) p_2) 1) (* $c $L_7_2)))
(assert (>= 0 (+ (* s_1 p_0) s_0)))
(assert (>= $L_7_1 0))
(assert (>= $L_7_2 0))
(check-sat)
(get-model)
